p cnf 1203
-22 -372
-23 -375
-24 -378
-25 -381
-26 -384
-27 -387
-28 -390
-29 -393
-30 -396
-31 -399
-32 -402
-33 -405
-34 -408
-35 -411
-36 -414
-37 -417
-38 -420
-39 -423
-40 -426
-41 -429
-42 -432
-43 433
-44 434
-45 435
-46 436
-47 437
-48 -23
-48 -24
23 24 48
-49 -25
-49 -26
25 26 49
-50 -27
-50 -28
27 28 50
-51 -29
-51 -30
29 30 51
-52 -31
-52 -32
31 32 52
-53 -33
-53 -34
33 34 53
-54 -35
-54 -36
35 36 54
-55 -37
-55 -38
37 38 55
-56 -39
-56 -40
39 40 56
-57 -41
-57 -42
41 42 57
-58 -43
-58 -44
43 44 58
-59 -45
-59 -46
45 46 59
-60 48
-60 49
-48 -49 60
-61 50
-61 51
-50 -51 61
-62 52
-62 53
-52 -53 62
-63 54
-63 55
-54 -55 63
-64 56
-64 57
-56 -57 64
-65 58
-65 59
-58 -59 65
-66 60
-66 61
-60 -61 66
-67 62
-67 63
-62 -63 67
-68 64
-68 65
-64 -65 68
-69 66
-69 67
-66 -67 69
-70 -47
-70 68
47 -68 70
-71 69
-71 70
-69 -70 71
-72 -22
-72 23
22 -23 72
-73 22
-73 -23
-22 23 73
-74 -72
-74 -73
72 73 74
-75 22
-75 23
-22 -23 75
-76 -22
-76 -74
22 74 76
-77 22
-77 74
-22 -74 77
-78 -76
-78 -77
76 77 78
-79 22
-79 -74
-22 74 79
-80 -75
-80 -79
75 79 80
-81 -23
-81 24
23 -24 81
-82 23
-82 -24
-23 24 82
-83 -81
-83 -82
81 82 83
-84 23
-84 24
-23 -24 84
-85 80
-85 -83
-80 83 85
-86 -80
-86 83
80 -83 86
-87 -85
-87 -86
85 86 87
-88 -80
-88 -83
80 83 88
-89 -84
-89 -88
84 88 89
-90 -24
-90 25
24 -25 90
-91 24
-91 -25
-24 25 91
-92 -90
-92 -91
90 91 92
-93 24
-93 25
-24 -25 93
-94 89
-94 -92
-89 92 94
-95 -89
-95 92
89 -92 95
-96 -94
-96 -95
94 95 96
-97 -89
-97 -92
89 92 97
-98 -93
-98 -97
93 97 98
-99 -25
-99 26
25 -26 99
-100 25
-100 -26
-25 26 100
-101 -99
-101 -100
99 100 101
-102 25
-102 26
-25 -26 102
-103 98
-103 -101
-98 101 103
-104 -98
-104 101
98 -101 104
-105 -103
-105 -104
103 104 105
-106 -98
-106 -101
98 101 106
-107 -102
-107 -106
102 106 107
-108 -26
-108 27
26 -27 108
-109 26
-109 -27
-26 27 109
-110 -108
-110 -109
108 109 110
-111 26
-111 27
-26 -27 111
-112 107
-112 -110
-107 110 112
-113 -107
-113 110
107 -110 113
-114 -112
-114 -113
112 113 114
-115 -107
-115 -110
107 110 115
-116 -111
-116 -115
111 115 116
-117 -27
-117 28
27 -28 117
-118 27
-118 -28
-27 28 118
-119 -117
-119 -118
117 118 119
-120 27
-120 28
-27 -28 120
-121 116
-121 -119
-116 119 121
-122 -116
-122 119
116 -119 122
-123 -121
-123 -122
121 122 123
-124 -116
-124 -119
116 119 124
-125 -120
-125 -124
120 124 125
-126 -28
-126 29
28 -29 126
-127 28
-127 -29
-28 29 127
-128 -126
-128 -127
126 127 128
-129 28
-129 29
-28 -29 129
-130 125
-130 -128
-125 128 130
-131 -125
-131 128
125 -128 131
-132 -130
-132 -131
130 131 132
-133 -125
-133 -128
125 128 133
-134 -129
-134 -133
129 133 134
-135 -29
-135 30
29 -30 135
-136 29
-136 -30
-29 30 136
-137 -135
-137 -136
135 136 137
-138 29
-138 30
-29 -30 138
-139 134
-139 -137
-134 137 139
-140 -134
-140 137
134 -137 140
-141 -139
-141 -140
139 140 141
-142 -134
-142 -137
134 137 142
-143 -138
-143 -142
138 142 143
-144 -30
-144 31
30 -31 144
-145 30
-145 -31
-30 31 145
-146 -144
-146 -145
144 145 146
-147 30
-147 31
-30 -31 147
-148 143
-148 -146
-143 146 148
-149 -143
-149 146
143 -146 149
-150 -148
-150 -149
148 149 150
-151 -143
-151 -146
143 146 151
-152 -147
-152 -151
147 151 152
-153 -31
-153 32
31 -32 153
-154 31
-154 -32
-31 32 154
-155 -153
-155 -154
153 154 155
-156 31
-156 32
-31 -32 156
-157 152
-157 -155
-152 155 157
-158 -152
-158 155
152 -155 158
-159 -157
-159 -158
157 158 159
-160 -152
-160 -155
152 155 160
-161 -156
-161 -160
156 160 161
-162 -32
-162 33
32 -33 162
-163 32
-163 -33
-32 33 163
-164 -162
-164 -163
162 163 164
-165 32
-165 33
-32 -33 165
-166 161
-166 -164
-161 164 166
-167 -161
-167 164
161 -164 167
-168 -166
-168 -167
166 167 168
-169 -161
-169 -164
161 164 169
-170 -165
-170 -169
165 169 170
-171 -33
-171 34
33 -34 171
-172 33
-172 -34
-33 34 172
-173 -171
-173 -172
171 172 173
-174 33
-174 34
-33 -34 174
-175 170
-175 -173
-170 173 175
-176 -170
-176 173
170 -173 176
-177 -175
-177 -176
175 176 177
-178 -170
-178 -173
170 173 178
-179 -174
-179 -178
174 178 179
-180 -34
-180 35
34 -35 180
-181 34
-181 -35
-34 35 181
-182 -180
-182 -181
180 181 182
-183 34
-183 35
-34 -35 183
-184 179
-184 -182
-179 182 184
-185 -179
-185 182
179 -182 185
-186 -184
-186 -185
184 185 186
-187 -179
-187 -182
179 182 187
-188 -183
-188 -187
183 187 188
-189 -35
-189 36
35 -36 189
-190 35
-190 -36
-35 36 190
-191 -189
-191 -190
189 190 191
-192 35
-192 36
-35 -36 192
-193 188
-193 -191
-188 191 193
-194 -188
-194 191
188 -191 194
-195 -193
-195 -194
193 194 195
-196 -188
-196 -191
188 191 196
-197 -192
-197 -196
192 196 197
-198 -36
-198 37
36 -37 198
-199 36
-199 -37
-36 37 199
-200 -198
-200 -199
198 199 200
-201 36
-201 37
-36 -37 201
-202 197
-202 -200
-197 200 202
-203 -197
-203 200
197 -200 203
-204 -202
-204 -203
202 203 204
-205 -197
-205 -200
197 200 205
-206 -201
-206 -205
201 205 206
-207 -37
-207 38
37 -38 207
-208 37
-208 -38
-37 38 208
-209 -207
-209 -208
207 208 209
-210 37
-210 38
-37 -38 210
-211 206
-211 -209
-206 209 211
-212 -206
-212 209
206 -209 212
-213 -211
-213 -212
211 212 213
-214 -206
-214 -209
206 209 214
-215 -210
-215 -214
210 214 215
-216 -38
-216 39
38 -39 216
-217 38
-217 -39
-38 39 217
-218 -216
-218 -217
216 217 218
-219 38
-219 39
-38 -39 219
-220 215
-220 -218
-215 218 220
-221 -215
-221 218
215 -218 221
-222 -220
-222 -221
220 221 222
-223 -215
-223 -218
215 218 223
-224 -219
-224 -223
219 223 224
-225 -39
-225 40
39 -40 225
-226 39
-226 -40
-39 40 226
-227 -225
-227 -226
225 226 227
-228 39
-228 40
-39 -40 228
-229 224
-229 -227
-224 227 229
-230 -224
-230 227
224 -227 230
-231 -229
-231 -230
229 230 231
-232 -224
-232 -227
224 227 232
-233 -228
-233 -232
228 232 233
-234 -40
-234 41
40 -41 234
-235 40
-235 -41
-40 41 235
-236 -234
-236 -235
234 235 236
-237 40
-237 41
-40 -41 237
-238 233
-238 -236
-233 236 238
-239 -233
-239 236
233 -236 239
-240 -238
-240 -239
238 239 240
-241 -233
-241 -236
233 236 241
-242 -237
-242 -241
237 241 242
-243 -41
-243 42
41 -42 243
-244 41
-244 -42
-41 42 244
-245 -243
-245 -244
243 244 245
-246 41
-246 42
-41 -42 246
-247 242
-247 -245
-242 245 247
-248 -242
-248 245
242 -245 248
-249 -247
-249 -248
247 248 249
-250 -242
-250 -245
242 245 250
-251 -246
-251 -250
246 250 251
-252 -42
-252 43
42 -43 252
-253 42
-253 -43
-42 43 253
-254 -252
-254 -253
252 253 254
-255 42
-255 43
-42 -43 255
-256 251
-256 -254
-251 254 256
-257 -251
-257 254
251 -254 257
-258 -256
-258 -257
256 257 258
-259 -251
-259 -254
251 254 259
-260 -255
-260 -259
255 259 260
-261 -43
-261 44
43 -44 261
-262 43
-262 -44
-43 44 262
-263 -261
-263 -262
261 262 263
-264 43
-264 44
-43 -44 264
-265 260
-265 -263
-260 263 265
-266 -260
-266 263
260 -263 266
-267 -265
-267 -266
265 266 267
-268 -260
-268 -263
260 263 268
-269 -264
-269 -268
264 268 269
-270 -44
-270 45
44 -45 270
-271 44
-271 -45
-44 45 271
-272 -270
-272 -271
270 271 272
-273 44
-273 45
-44 -45 273
-274 269
-274 -272
-269 272 274
-275 -269
-275 272
269 -272 275
-276 -274
-276 -275
274 275 276
-277 -269
-277 -272
269 272 277
-278 -273
-278 -277
273 277 278
-279 -45
-279 46
45 -46 279
-280 45
-280 -46
-45 46 280
-281 -279
-281 -280
279 280 281
-282 45
-282 46
-45 -46 282
-283 278
-283 -281
-278 281 283
-284 -278
-284 281
278 -281 284
-285 -283
-285 -284
283 284 285
-286 -278
-286 -281
278 281 286
-287 -282
-287 -286
282 286 287
-288 -46
-288 47
46 -47 288
-289 46
-289 -47
-46 47 289
-290 -288
-290 -289
288 289 290
-291 46
-291 47
-46 -47 291
-292 287
-292 -290
-287 290 292
-293 -287
-293 290
287 -290 293
-294 -292
-294 -293
292 293 294
-295 -287
-295 -290
287 290 295
-296 -291
-296 -295
291 295 296
-297 22
-297 -78
-22 78 297
-298 -22
-298 24
22 -24 298
-299 -297
-299 -298
297 298 299
-300 22
-300 -87
-22 87 300
-301 -22
-301 25
22 -25 301
-302 -300
-302 -301
300 301 302
-303 22
-303 -96
-22 96 303
-304 -22
-304 26
22 -26 304
-305 -303
-305 -304
303 304 305
-306 22
-306 -105
-22 105 306
-307 -22
-307 27
22 -27 307
-308 -306
-308 -307
306 307 308
-309 22
-309 -114
-22 114 309
-310 -22
-310 28
22 -28 310
-311 -309
-311 -310
309 310 311
-312 22
-312 -123
-22 123 312
-313 -22
-313 29
22 -29 313
-314 -312
-314 -313
312 313 314
-315 22
-315 -132
-22 132 315
-316 -22
-316 30
22 -30 316
-317 -315
-317 -316
315 316 317
-318 22
-318 -141
-22 141 318
-319 -22
-319 31
22 -31 319
-320 -318
-320 -319
318 319 320
-321 22
-321 -150
-22 150 321
-322 -22
-322 32
22 -32 322
-323 -321
-323 -322
321 322 323
-324 22
-324 -159
-22 159 324
-325 -22
-325 33
22 -33 325
-326 -324
-326 -325
324 325 326
-327 22
-327 -168
-22 168 327
-328 -22
-328 34
22 -34 328
-329 -327
-329 -328
327 328 329
-330 22
-330 -177
-22 177 330
-331 -22
-331 35
22 -35 331
-332 -330
-332 -331
330 331 332
-333 22
-333 -186
-22 186 333
-334 -22
-334 36
22 -36 334
-335 -333
-335 -334
333 334 335
-336 22
-336 -195
-22 195 336
-337 -22
-337 37
22 -37 337
-338 -336
-338 -337
336 337 338
-339 22
-339 -204
-22 204 339
-340 -22
-340 38
22 -38 340
-341 -339
-341 -340
339 340 341
-342 22
-342 -213
-22 213 342
-343 -22
-343 39
22 -39 343
-344 -342
-344 -343
342 343 344
-345 22
-345 -222
-22 222 345
-346 -22
-346 40
22 -40 346
-347 -345
-347 -346
345 346 347
-348 22
-348 -231
-22 231 348
-349 -22
-349 41
22 -41 349
-350 -348
-350 -349
348 349 350
-351 22
-351 -240
-22 240 351
-352 -22
-352 42
22 -42 352
-353 -351
-353 -352
351 352 353
-354 22
-354 -249
-22 249 354
-355 -22
-355 43
22 -43 355
-356 -354
-356 -355
354 355 356
-357 22
-357 -258
-22 258 357
-358 -22
-358 44
22 -44 358
-359 -357
-359 -358
357 358 359
-360 22
-360 -267
-22 267 360
-361 -22
-361 45
22 -45 361
-362 -360
-362 -361
360 361 362
-363 22
-363 -276
-22 276 363
-364 -22
-364 46
22 -46 364
-365 -363
-365 -364
363 364 365
-366 22
-366 -285
-22 285 366
-367 -22
-367 47
22 -47 367
-368 -366
-368 -367
366 367 368
-369 22
-369 -294
-22 294 369
-370 1
-370 71
-1 -71 370
-371 -71
-371 72
71 -72 371
-372 -370
-372 -371
370 371 372
-373 2
-373 71
-2 -71 373
-374 -71
-374 -299
71 299 374
-375 -373
-375 -374
373 374 375
-376 3
-376 71
-3 -71 376
-377 -71
-377 -302
71 302 377
-378 -376
-378 -377
376 377 378
-379 4
-379 71
-4 -71 379
-380 -71
-380 -305
71 305 380
-381 -379
-381 -380
379 380 381
-382 5
-382 71
-5 -71 382
-383 -71
-383 -308
71 308 383
-384 -382
-384 -383
382 383 384
-385 6
-385 71
-6 -71 385
-386 -71
-386 -311
71 311 386
-387 -385
-387 -386
385 386 387
-388 7
-388 71
-7 -71 388
-389 -71
-389 -314
71 314 389
-390 -388
-390 -389
388 389 390
-391 8
-391 71
-8 -71 391
-392 -71
-392 -317
71 317 392
-393 -391
-393 -392
391 392 393
-394 9
-394 71
-9 -71 394
-395 -71
-395 -320
71 320 395
-396 -394
-396 -395
394 395 396
-397 10
-397 71
-10 -71 397
-398 -71
-398 -323
71 323 398
-399 -397
-399 -398
397 398 399
-400 11
-400 71
-11 -71 400
-401 -71
-401 -326
71 326 401
-402 -400
-402 -401
400 401 402
-403 12
-403 71
-12 -71 403
-404 -71
-404 -329
71 329 404
-405 -403
-405 -404
403 404 405
-406 13
-406 71
-13 -71 406
-407 -71
-407 -332
71 332 407
-408 -406
-408 -407
406 407 408
-409 14
-409 71
-14 -71 409
-410 -71
-410 -335
71 335 410
-411 -409
-411 -410
409 410 411
-412 15
-412 71
-15 -71 412
-413 -71
-413 -338
71 338 413
-414 -412
-414 -413
412 413 414
-415 16
-415 71
-16 -71 415
-416 -71
-416 -341
71 341 416
-417 -415
-417 -416
415 416 417
-418 17
-418 71
-17 -71 418
-419 -71
-419 -344
71 344 419
-420 -418
-420 -419
418 419 420
-421 18
-421 71
-18 -71 421
-422 -71
-422 -347
71 347 422
-423 -421
-423 -422
421 422 423
-424 19
-424 71
-19 -71 424
-425 -71
-425 -350
71 350 425
-426 -424
-426 -425
424 425 426
-427 20
-427 71
-20 -71 427
-428 -71
-428 -353
71 353 428
-429 -427
-429 -428
427 428 429
-430 21
-430 71
-21 -71 430
-431 -71
-431 -356
71 356 431
-432 -430
-432 -431
430 431 432
-433 -71
-433 -359
71 359 433
-434 -71
-434 -362
71 362 434
-435 -71
-435 -365
71 365 435
-436 -71
-436 -368
71 368 436
-437 -71
-437 369
71 -369 437
-438 -47
-438 296
47 -296 438
-439 22
-439 -438
-22 438 439
439
